
Gurobi 11.0.3 (linux64) logging started Mon Aug 25 17:11:00 2025

Set parameter LogFile to value "/home/yihong/Coding/OR_SUC/SUC_epstheta_results_bigM100000_thread4/case24_ieee_rts_theta0.001_epsilon0.1_gurobi_seed150000_num_gen100_N_WDR50_load_scaling_factor1_proposed_eps_T5quadra_cost_bc1.03.txt"
Set parameter TimeLimit to value 3600
Gurobi Optimizer version 11.0.3 build v11.0.3rc0 (linux64 - "Ubuntu 20.04.6 LTS")

CPU model: AMD EPYC 7532 32-Core Processor, instruction set [SSE2|AVX|AVX2]
Thread count: 64 physical cores, 128 logical processors, using up to 4 threads

Academic license 2399124 - for non-commercial use only - registered to yi___@ed.ac.uk
Optimize a model with 11547 rows, 6251 columns and 272622 nonzeros
Model fingerprint: 0x732ecfff
Model has 500 quadratic constraints
Variable types: 5751 continuous, 500 integer (500 binary)
Coefficient statistics:
  Matrix range     [3e-04, 2e+03]
  QMatrix range    [2e-03, 8e-03]
  QLMatrix range   [1e-01, 6e+01]
  Objective range  [1e+00, 1e+00]
  Bounds range     [1e+00, 1e+00]
  RHS range        [5e-02, 9e+03]
Presolve removed 9659 rows and 2841 columns
Presolve time: 0.06s
Presolved: 1888 rows, 3410 columns, 11732 nonzeros
Presolved model has 500 quadratic constraint(s)
Variable types: 2910 continuous, 500 integer (500 binary)

Root relaxation: objective 5.832169e+03, 1483 iterations, 0.02 seconds (0.03 work units)

    Nodes    |    Current Node    |     Objective Bounds      |     Work
 Expl Unexpl |  Obj  Depth IntInf | Incumbent    BestBd   Gap | It/Node Time

     0     0 5832.16895    0    5          - 5832.16895      -     -    0s
     0     0 24069.5261    0  245          - 24069.5261      -     -    0s
     0     0 96341.1102    0  111          - 96341.1102      -     -    0s
     0     0 96652.8996    0  109          - 96652.8996      -     -    0s
     0     0 96741.3602    0   51          - 96741.3602      -     -    0s
     0     0 96741.3965    0   51          - 96741.3965      -     -    0s
     0     0 96741.6007    0   51          - 96741.6007      -     -    0s
     0     0 96741.6113    0   51          - 96741.6113      -     -    0s
     0     2 96741.6573    0   51          - 96741.6573      -     -    0s
H  142   143                    96748.967441 96748.3332  0.00%   7.6    0s
*  142   143              34    96748.967441 96748.3332  0.00%   7.6    0s

Cutting planes:
  Gomory: 15
  Implied bound: 144
  MIR: 42
  Flow cover: 135

Explored 154 nodes (5706 simplex iterations) in 0.89 seconds (0.80 work units)
Thread count was 4 (of 128 available processors)

Solution count 2: 96749 96749 

Optimal solution found (tolerance 1.00e-03)
Warning: max constraint violation (2.8934e-08) exceeds tolerance
Best objective 9.674896744052e+04, best bound 9.674833318366e+04, gap 0.0007%

Gurobi 11.0.3 (linux64) logging started Mon Aug 25 17:11:01 2025

Set parameter LogFile to value "/home/yihong/Coding/OR_SUC/SUC_epstheta_results_bigM100000_thread4/case24_ieee_rts_theta0.001_epsilon0.1_gurobi_seed150000_num_gen100_N_WDR50_load_scaling_factor1_proposed_eps_T5quadra_cost_bc1.03.txt"
Set parameter TimeLimit to value 3600
Gurobi Optimizer version 11.0.3 build v11.0.3rc0 (linux64 - "Ubuntu 20.04.6 LTS")

CPU model: AMD EPYC 7532 32-Core Processor, instruction set [SSE2|AVX|AVX2]
Thread count: 64 physical cores, 128 logical processors, using up to 4 threads

Academic license 2399124 - for non-commercial use only - registered to yi___@ed.ac.uk
Optimize a model with 11547 rows, 6252 columns and 274121 nonzeros
Model fingerprint: 0xbcaad2a6
Model has 501 quadratic constraints
Variable types: 5752 continuous, 500 integer (500 binary)
Coefficient statistics:
  Matrix range     [3e-04, 2e+03]
  QMatrix range    [2e-03, 5e+01]
  QLMatrix range   [1e-01, 6e+01]
  Objective range  [1e+00, 1e+00]
  Bounds range     [1e-01, 1e+00]
  RHS range        [1e+00, 1e+05]
  QRHS range       [5e-02, 5e-02]
Presolve removed 8826 rows and 2432 columns
Presolve time: 0.06s
Presolved: 3223 rows, 4320 columns, 18714 nonzeros
Presolved model has 500 quadratic constraint(s)
Presolved model has 1 bilinear constraint(s)

Solving non-convex MIQCP

Variable types: 3816 continuous, 504 integer (504 binary)

Root relaxation: objective 1.418614e-05, 3499 iterations, 0.10 seconds (0.13 work units)

    Nodes    |    Current Node    |     Objective Bounds      |     Work
 Expl Unexpl |  Obj  Depth IntInf | Incumbent    BestBd   Gap | It/Node Time

     0     0    0.00001    0    5          -    0.00001      -     -    0s
     0     0    0.00001    0    4          -    0.00001      -     -    0s
H    0     0                       0.0005020    0.00001  97.2%     -    0s
     0     0    0.00001    0    8    0.00050    0.00001  97.1%     -    0s
     0     0    0.00001    0    6    0.00050    0.00001  97.1%     -    0s
     0     0    0.00001    0    6    0.00050    0.00001  97.1%     -    0s
     0     0    0.00001    0    4    0.00050    0.00001  97.1%     -    0s
     0     0    0.00001    0    4    0.00050    0.00001  97.1%     -    0s
     0     0    0.00001    0    4    0.00050    0.00001  97.1%     -    0s
H    0     0                       0.0002289    0.00001  93.7%     -    0s
H    0     0                       0.0002121    0.00001  93.2%     -    0s
H    0     0                       0.0002020    0.00001  92.9%     -    0s
H    0     2                       0.0002020    0.00010  51.5%     -    1s
     0     2    0.00010    0    6    0.00020    0.00010  51.5%     -    1s
H  178   170                       0.0001393    0.00010  28.8%  22.8    1s
*  178   170              21       0.0001393    0.00010  28.8%  22.8    1s
H  194   165                       0.0001365    0.00010  27.1%  21.8    1s
*  194   165              23       0.0001365    0.00010  27.1%  21.8    1s
H  210   175                       0.0001364    0.00010  27.0%  21.8    1s
*  210   175              26       0.0001364    0.00010  27.0%  21.8    1s
H  373   257                       0.0001358    0.00010  26.0%  17.3    2s
*  373   257              14       0.0001358    0.00010  26.0%  17.3    2s
H  393   222                       0.0001354    0.00010  25.8%  17.4    2s
*  393   222              20       0.0001354    0.00010  25.8%  17.4    2s
H  442   212                       0.0001353    0.00010  25.6%  17.4    2s
*  442   212              13       0.0001353    0.00010  25.6%  17.4    2s
H  604   140                       0.0001352    0.00010  24.4%  16.2    2s
*  604   140              20       0.0001352    0.00010  24.4%  16.2    2s
H  625    93                       0.0001352    0.00010  24.2%  15.9    2s
*  625    93              21       0.0001352    0.00010  24.2%  16.0    2s
H  766    79                       0.0001350    0.00013  0.67%  14.9    3s
*  766    79              12       0.0001350    0.00013  0.67%  14.9    3s
H  801    50                       0.0001349    0.00013  0.34%  15.0    3s
*  801    50              11       0.0001349    0.00013  0.32%  15.0    3s

Cutting planes:
  Cover: 1
  Implied bound: 26
  MIR: 2
  Flow cover: 16
  Inf proof: 5
  RLT: 2
  PSD: 1

Explored 890 nodes (17249 simplex iterations) in 3.28 seconds (4.29 work units)
Thread count was 4 (of 128 available processors)

Solution count 10: 0.000134929 0.000134929 0.000135029 ... 0.000136505

Optimal solution found (tolerance 1.00e-03)
Warning: max constraint violation (3.8000e-07) exceeds tolerance
Best objective 1.349294326523e-04, best bound 1.349087654928e-04, gap 0.0153%
